     Program PWSCF v.6.1 starts on 23Jul2025 at 17:39:43

     Current dimensions of program PWSCF are:
     Max number of different atomic species (ntypx) = 10
     Max number of k-points (npk) =  40000
     Max angular momentum in pseudopotentials (lmaxx) =  3
               file Mg.pbe-spnl-rrkjus_psl.1.0.0.UPF: wavefunction(s)  2P renormalized

     Subspace diagonalization in iterative solution of the eigenvalue problem:
     a serial algorithm will be used

     Title:
     MgB2(SCF)

     bravais-lattice index     =            4
     lattice parameter (alat)  =       5.7878  a.u.
     unit-cell volume          =     193.0204 (a.u.)^3
     number of atoms/cell      =            3
     number of atomic types    =            2
     number of electrons       =        16.00
     number of Kohn-Sham states=           12
     kinetic-energy cutoff     =      58.1209  Ry
     charge density cutoff     =     523.0880  Ry
     convergence threshold     =      1.0E-06
     mixing beta               =       0.7000
     number of iterations used =            8  plain     mixing
     Exchange-correlation      =  SLA  PW   PBE  PBE ( 1  4  3  4 0 0)

     celldm(1)=   5.787778  celldm(2)=   0.000000  celldm(3)=   1.149574
     celldm(4)=   0.000000  celldm(5)=   0.000000  celldm(6)=   0.000000

     crystal axes: (cart. coord. in units of alat)
               a(1) = (   1.000000   0.000000   0.000000 )
               a(2) = (  -0.500000   0.866025   0.000000 )
               a(3) = (   0.000000   0.000000   1.149574 )

     reciprocal axes: (cart. coord. in units 2 pi/alat)
               b(1) = (  1.000000  0.577350 -0.000000 )
               b(2) = (  0.000000  1.154701  0.000000 )
               b(3) = (  0.000000 -0.000000  0.869887 )

     PseudoPot. # 1 for Mg read from file:
     C:\Users\Asus\.burai\.pseudopot/Mg.pbe-spnl-rrkjus_psl.1.0.0.UPF
     MD5 check sum: 7c40945c0798581420c2fabae28d1e2b
     Pseudo is Ultrasoft + core correction, Zval = 10.0
     Generated using "atomic" code by A. Dal Corso  v.5.1.2
     Using radial grid of 1129 points,  4 beta functions with:
                l(1) =   0
                l(2) =   0
                l(3) =   1
                l(4) =   1
     Q(r) pseudized with 0 coefficients

     PseudoPot. # 2 for B  read from file:
     C:\Users\Asus\.burai\.pseudopot/B.pbe-n-van_ak.UPF
     MD5 check sum: 44325abe75095cf951b0d625b71cdc45
     Pseudo is Ultrasoft + core correction, Zval =  3.0
     Generated by new atomic code, or converted to UPF format
     Using radial grid of  781 points,  4 beta functions with:
                l(1) =   0
                l(2) =   0
                l(3) =   1
                l(4) =   1
     Q(r) pseudized with  8 coefficients,  rinner =    1.100   1.100   1.100

     atomic species   valence    mass     pseudopotential
        Mg            10.00    24.30500     Mg( 1.00)
        B-             3.00    10.81100     B ( 1.00)

     24 Sym. Ops., with inversion, found

   Cartesian axes

     site n.     atom                  positions (alat units)
         1           Mg  tau(   1) = (   0.0000000   0.0000000   0.0000000  )
         2           B-  tau(   2) = (   0.5000003   0.2886752   0.5747871  )
         3           B-  tau(   3) = (  -0.0000000   0.5773508   0.5747871  )

     number of k points=   133  Methfessel-Paxton smearing, width (Ry)=  0.0100

     Number of k-points >= 100: set verbosity='high' to print them.

     Check: negative/imaginary core charge=   -0.000005    0.000000

     Initial potential from superposition of free atoms

     starting charge   15.99851, renormalised to   16.00000
     Starting wfc are   13 randomized atomic wfcs

     Self-consistent Calculation

     iteration #  1     ecut=    58.12 Ry     beta=0.70
     Davidson diagonalization with overlap
     ethr =  1.00E-02,  avg # of iterations =  3.7

     total energy              =    -139.01029350 Ry
     Harris-Foulkes estimate   =    -139.23490152 Ry
     estimated scf accuracy    <       0.32716902 Ry

[...]

     total energy              =    -139.11015211 Ry
     Harris-Foulkes estimate   =    -139.11015331 Ry
     estimated scf accuracy    <       0.00001523 Ry

     iteration #  5     ecut=    58.12 Ry     beta=0.70
     Davidson diagonalization with overlap
     ethr =  9.52E-08,  avg # of iterations =  4.2

     End of self-consistent calculation

     Number of k-points >= 100: set verbosity='high' to print the bands.

     the Fermi energy is     9.0762 ev

!    total energy              =    -139.11016402 Ry
     Harris-Foulkes estimate   =    -139.11016395 Ry
     estimated scf accuracy    <       0.00000013 Ry

     The total energy is the sum of the following terms:

     one-electron contribution =     -90.05049155 Ry
     hartree contribution      =      48.36479267 Ry
     xc contribution           =     -23.19945000 Ry
     ewald contribution        =     -74.22512015 Ry
     smearing contrib. (-TS)   =       0.00010502 Ry

     convergence has been achieved in   5 iterations

     Writing output data file espresso.save

     General routines

     Parallel routines

   This run was terminated on:  17:41: 5  23Jul2025

   JOB DONE.